\ENCODING=ISO-8859-1
\Problem name: ilog.cplex

Minimize
 obj: x1 + x2 + x3 + x4 + x5 + x6 + x7
Subject To
 c1:  x1 + x15 + x16 + x17 + x18 + x19 + x20 + x21 + x22 + x23 + x24 + x25
      + x26 + x27 + x28 + x29 + x30 + x31 + x32 + x33 + x34 + x35 + x36 + x37
      + x38 + x39 + x40 + x41 + x42 + x43 + x44 + x45 + x46 + x47 + x48 + x49
      + x50 + x51 + x52 + x53 + x54 + x55 + x56 + x57 + x58 + x59 + x60 + x61
      + x62 + x63 + x64 + x65 + x66 + x67 + x68 + x69 + x70 + x71 + x72 + x73
      + x74 + x75 + x76 + x77 + x78 + x79 + x80 + x81 + x82 + x83 + x84 + x85
      + x86 + x87 + x88 + x89 + x90 + x91 + x92 + x93 + x94 + x95 + x96 + x97
      + x98 + x99 + x100 + x101 + x102 + x103 + x104 + x105 + x106 + x107
      + x108 + x109 + x110 + x111 + x112 + x113 + x114 + x115 + x116 + x117
      + x118 + x119 + x120 + x121 + x122 + x123 + x124 + x125 + x126 + x127
      + x128 + x129 + x130 + x131 + x132 + x133 + x134 + x135 + x136 + x137
      + x138 + x139 + x140 + x141 + x142 + x143 + x144 + x145 + x146 + x147
      + x148 + x149 + x150 + x151 + x152 + x153 + x154 + x155 + x156 + x157
      + x158 + x159 + x160 + x161 + x162 + x163 + x164 + x165 + x166 + x167
      + x168 + x169 + x170 + x171 + x172 + x173 + x174 + x175 + x176  = 1
 c3:  x2 + x15 + x17 + x22 + x23 + x24 + x25 + x26 + x27 + x28 + x29 + x31
      + x33 + x34 + x35 + x37 + x38 + x40 + x42 + x43 + x44 + x45 + x46 + x47
      + x48 + x50 + x51 + x52 + x54 + x61 + x62 + x63 + x65 + x67 + x69 + x70
      + x71 + x72 + x73 + x74 + x76 + x77 + x78 + x80 + x82 + x84 + x87 + x89
      + x90 + x91 + x92 + x94 + x96 + x100 + x101 + x102 + x103 + x105 + x107
      + x110 + x111 + x113 + x115 + x117 + x118 + x121 + x122 + x123 + x124
      + x128 + x130 + x132 + x134 + x135 + x136 + x138 + x139 + x140 + x141
      + x142 + x144 + x147 + x149 + x150 + x152 + x153 + x154 + x155 + x158
      + x159 + x161 + x163 + x167 + x168 + x170 + x173 + x174 + x339 + x340
      + x341 + x342 + x343 + x344 + x345 + x346 + x347 + x348 + x349 + x350
      + x351 + x352 + x353 + x354 + x355  = 1
 c5:  x3 + x16 + x17 + x18 + x22 + x23 + x25 + x27 + x28 + x29 + x31 + x33
      + x34 + x36 + x38 + x39 + x40 + x41 + x42 + x43 + x47 + x48 + x50 + x52
      + x53 + x55 + x56 + x58 + x59 + x60 + x62 + x64 + x65 + x66 + x67 + x69
      + x80 + x81 + x85 + x87 + x88 + x92 + x93 + x95 + x98 + x102 + x114
      + x116 + x119 + x121 + x123 + x125 + x126 + x131 + x133 + x138 + x140
      + x143 + x145 + x148 + x149 + x150 + x156 + x160 + x164 + x165 + x167
      + x172 + x176 + x342 + x343 + x345 + x350 + x351 + x353 + x356 + x357
      + x358 + x359 + x360 + x361 + x362 + x363 + x364 + x365 + x366 + x367
      + x368 + x369 + x370 + x371 + x372 + x373 + x374  = 1
 c7:  x4 + x16 + x17 + x18 + x19 + x21 + x24 + x25 + x27 + x28 + x32 + x33
      + x36 + x37 + x44 + x45 + x49 + x51 + x54 + x56 + x57 + x58 + x61 + x62
      + x63 + x64 + x66 + x70 + x71 + x73 + x76 + x78 + x79 + x83 + x84 + x95
      + x96 + x97 + x99 + x101 + x103 + x104 + x105 + x106 + x107 + x109 + x111
      + x112 + x113 + x114 + x115 + x122 + x126 + x127 + x128 + x129 + x132
      + x134 + x135 + x137 + x139 + x142 + x143 + x146 + x147 + x151 + x153
      + x155 + x157 + x161 + x165 + x169 + x170 + x171 + x174 + x176 + x340
      + x342 + x343 + x346 + x347 + x349 + x350 + x351 + x352 + x354 + x357
      + x359 + x361 + x362 + x363 + x365 + x366 + x367 + x369 + x370 + x371
      + x394 + x395 + x396 + x397 + x398 + x399 + x400 + x401 + x402 + x403
      + x404 + x405  = 1
 c9:  x5 + x18 + x22 + x23 + x35 + x37 + x38 + x39 + x46 + x48 + x53 + x56
      + x57 + x63 + x68 + x70 + x73 + x82 + x84 + x85 + x90 + x91 + x93 + x98
      + x99 + x104 + x108 + x110 + x115 + x116 + x117 + x118 + x119 + x124
      + x125 + x127 + x136 + x137 + x141 + x145 + x152 + x156 + x159 + x162
      + x164 + x169 + x171 + x175 + x347 + x349 + x362 + x363 + x364 + x373
      + x394 + x398 + x401 + x404 + x418 + x419  = 1
 c11: x6 + x15 + x19 + x20 + x26 + x30 + x41 + x49 + x74 + x75 + x79 + x83
      + x86 + x108 + x120 + x166 + x339 + x340 + x341 + x344 + x346 + x348
      + x355 + x358 + x368 + x394 + x397 + x398 + x399 + x400 + x405 + x418
      + x419 + x422 + x423 + x424 + x425 + x426 + x427 + x428 + x429  = 1
 c13: x7 + x30 + x34 + x36 + x39 + x40 + x46 + x52 + x53 + x54 + x58 + x60
      + x64 + x68 + x71 + x77 + x81 + x86 + x90 + x94 + x99 + x105 + x112
      + x118 + x131 + x137 + x139 + x142 + x146 + x151 + x158 + x160 + x162
      + x172 + x173 + x342 + x344 + x345 + x347 + x349 + x354 + x356 + x357
      + x360 + x361 + x363 + x364 + x365 + x366 + x367 + x369 + x370 + x371
      + x372 + x395 + x396 + x397 + x399 + x402 + x403 + x423 + x424 + x427
      + x428  = 1
 c15: x15 + x16 + x17 + x18 + x19 + x20 + x21 + x22 + x23 + x24 + x25 + x26
      + x27 + x28 + x29 + x30 + x31 + x32 + x33 + x34 + x35 + x36 + x37 + x38
      + x39 + x40 + x41 + x42 + x43 + x44 + x45 + x46 + x47 + x48 + x49 + x50
      + x51 + x52 + x53 + x54 + x55 + x56 + x57 + x58 + x59 + x60 + x61 + x62
      + x63 + x64 + x339 + x340 + x341 + x342 + x343 + x344 + x356 + x357
      + x358 + x359 + x360 + x361 + x362 + x363 + x394 + x395 + x396 + x397
      + x418 + x422 + x423 <= 1
 c17: x65 + x66 + x67 + x68 + x69 + x70 + x71 + x72 + x73 + x74 + x75 + x76
      + x77 + x78 + x79 + x80 + x81 + x82 + x83 + x84 + x85 + x86 + x87 + x88
      + x89 + x90 + x91 + x92 + x93 + x94 + x95 + x96 + x97 + x98 + x99 + x100
      + x101 + x102 + x103 + x104 + x105 + x106 + x107 + x108 + x109 + x110
      + x111 + x112 + x113 + x114 + x115 + x116 + x117 + x118 + x345 + x346
      + x347 + x348 + x349 + x364 + x365 + x366 + x367 + x368 + x398 + x399
      + x424 + x425 <= 1
 c19: x119 + x120 + x121 + x122 + x123 + x124 + x125 + x126 + x127 + x128
      + x129 + x130 + x131 + x132 + x133 + x134 + x135 + x136 + x137 + x138
      + x139 + x140 + x141 + x142 + x143 + x144 + x145 + x146 + x147 + x148
      + x350 + x351 + x352 + x369 + x370 + x371 + x400 + x401 + x402 + x426
      + x427 <= 1
 c21: x149 + x150 + x151 + x152 + x153 + x154 + x155 + x156 + x157 + x158
      + x159 + x160 + x161 + x162 + x163 + x164 + x165 + x166 + x167 + x168
      + x169 + x170 + x171 + x172 + x173 + x174 + x175 + x176 + x353 + x354
      + x355 + x372 + x373 + x374 + x403 + x404 + x405 + x419 + x428 + x429
      <= 1
Bounds
 0 <= x1 <= 1
 0 <= x2 <= 1
 0 <= x3 <= 1
 0 <= x4 <= 1
 0 <= x5 <= 1
 0 <= x6 <= 1
 0 <= x7 <= 1
 0 <= x15 <= 1
 0 <= x16 <= 1
 0 <= x17 <= 1
 0 <= x18 <= 1
 0 <= x19 <= 1
 0 <= x20 <= 1
 0 <= x21 <= 1
 0 <= x22 <= 1
 0 <= x23 <= 1
 0 <= x24 <= 1
 0 <= x25 <= 1
 0 <= x26 <= 1
 0 <= x27 <= 1
 0 <= x28 <= 1
 0 <= x29 <= 1
 0 <= x30 <= 1
 0 <= x31 <= 1
 0 <= x32 <= 1
 0 <= x33 <= 1
 0 <= x34 <= 1
 0 <= x35 <= 1
 0 <= x36 <= 1
 0 <= x37 <= 1
 0 <= x38 <= 1
 0 <= x39 <= 1
 0 <= x40 <= 1
 0 <= x41 <= 1
 0 <= x42 <= 1
 0 <= x43 <= 1
 0 <= x44 <= 1
 0 <= x45 <= 1
 0 <= x46 <= 1
 0 <= x47 <= 1
 0 <= x48 <= 1
 0 <= x49 <= 1
 0 <= x50 <= 1
 0 <= x51 <= 1
 0 <= x52 <= 1
 0 <= x53 <= 1
 0 <= x54 <= 1
 0 <= x55 <= 1
 0 <= x56 <= 1
 0 <= x57 <= 1
 0 <= x58 <= 1
 0 <= x59 <= 1
 0 <= x60 <= 1
 0 <= x61 <= 1
 0 <= x62 <= 1
 0 <= x63 <= 1
 0 <= x64 <= 1
 0 <= x65 <= 1
 0 <= x66 <= 1
 0 <= x67 <= 1
 0 <= x68 <= 1
 0 <= x69 <= 1
 0 <= x70 <= 1
 0 <= x71 <= 1
 0 <= x72 <= 1
 0 <= x73 <= 1
 0 <= x74 <= 1
 0 <= x75 <= 1
 0 <= x76 <= 1
 0 <= x77 <= 1
 0 <= x78 <= 1
 0 <= x79 <= 1
 0 <= x80 <= 1
 0 <= x81 <= 1
 0 <= x82 <= 1
 0 <= x83 <= 1
 0 <= x84 <= 1
 0 <= x85 <= 1
 0 <= x86 <= 1
 0 <= x87 <= 1
 0 <= x88 <= 1
 0 <= x89 <= 1
 0 <= x90 <= 1
 0 <= x91 <= 1
 0 <= x92 <= 1
 0 <= x93 <= 1
 0 <= x94 <= 1
 0 <= x95 <= 1
 0 <= x96 <= 1
 0 <= x97 <= 1
 0 <= x98 <= 1
 0 <= x99 <= 1
 0 <= x100 <= 1
 0 <= x101 <= 1
 0 <= x102 <= 1
 0 <= x103 <= 1
 0 <= x104 <= 1
 0 <= x105 <= 1
 0 <= x106 <= 1
 0 <= x107 <= 1
 0 <= x108 <= 1
 0 <= x109 <= 1
 0 <= x110 <= 1
 0 <= x111 <= 1
 0 <= x112 <= 1
 0 <= x113 <= 1
 0 <= x114 <= 1
 0 <= x115 <= 1
 0 <= x116 <= 1
 0 <= x117 <= 1
 0 <= x118 <= 1
 0 <= x119 <= 1
 0 <= x120 <= 1
 0 <= x121 <= 1
 0 <= x122 <= 1
 0 <= x123 <= 1
 0 <= x124 <= 1
 0 <= x125 <= 1
 0 <= x126 <= 1
 0 <= x127 <= 1
 0 <= x128 <= 1
 0 <= x129 <= 1
 0 <= x130 <= 1
 0 <= x131 <= 1
 0 <= x132 <= 1
 0 <= x133 <= 1
 0 <= x134 <= 1
 0 <= x135 <= 1
 0 <= x136 <= 1
 0 <= x137 <= 1
 0 <= x138 <= 1
 0 <= x139 <= 1
 0 <= x140 <= 1
 0 <= x141 <= 1
 0 <= x142 <= 1
 0 <= x143 <= 1
 0 <= x144 <= 1
 0 <= x145 <= 1
 0 <= x146 <= 1
 0 <= x147 <= 1
 0 <= x148 <= 1
 0 <= x149 <= 1
 0 <= x150 <= 1
 0 <= x151 <= 1
 0 <= x152 <= 1
 0 <= x153 <= 1
 0 <= x154 <= 1
 0 <= x155 <= 1
 0 <= x156 <= 1
 0 <= x157 <= 1
 0 <= x158 <= 1
 0 <= x159 <= 1
 0 <= x160 <= 1
 0 <= x161 <= 1
 0 <= x162 <= 1
 0 <= x163 <= 1
 0 <= x164 <= 1
 0 <= x165 <= 1
 0 <= x166 <= 1
 0 <= x167 <= 1
 0 <= x168 <= 1
 0 <= x169 <= 1
 0 <= x170 <= 1
 0 <= x171 <= 1
 0 <= x172 <= 1
 0 <= x173 <= 1
 0 <= x174 <= 1
 0 <= x175 <= 1
 0 <= x176 <= 1
 0 <= x339 <= 1
 0 <= x340 <= 1
 0 <= x341 <= 1
 0 <= x342 <= 1
 0 <= x343 <= 1
 0 <= x344 <= 1
 0 <= x345 <= 1
 0 <= x346 <= 1
 0 <= x347 <= 1
 0 <= x348 <= 1
 0 <= x349 <= 1
 0 <= x350 <= 1
 0 <= x351 <= 1
 0 <= x352 <= 1
 0 <= x353 <= 1
 0 <= x354 <= 1
 0 <= x355 <= 1
 0 <= x356 <= 1
 0 <= x357 <= 1
 0 <= x358 <= 1
 0 <= x359 <= 1
 0 <= x360 <= 1
 0 <= x361 <= 1
 0 <= x362 <= 1
 0 <= x363 <= 1
 0 <= x364 <= 1
 0 <= x365 <= 1
 0 <= x366 <= 1
 0 <= x367 <= 1
 0 <= x368 <= 1
 0 <= x369 <= 1
 0 <= x370 <= 1
 0 <= x371 <= 1
 0 <= x372 <= 1
 0 <= x373 <= 1
 0 <= x374 <= 1
 0 <= x394 <= 1
 0 <= x395 <= 1
 0 <= x396 <= 1
 0 <= x397 <= 1
 0 <= x398 <= 1
 0 <= x399 <= 1
 0 <= x400 <= 1
 0 <= x401 <= 1
 0 <= x402 <= 1
 0 <= x403 <= 1
 0 <= x404 <= 1
 0 <= x405 <= 1
 0 <= x418 <= 1
 0 <= x419 <= 1
 0 <= x422 <= 1
 0 <= x423 <= 1
 0 <= x424 <= 1
 0 <= x425 <= 1
 0 <= x426 <= 1
 0 <= x427 <= 1
 0 <= x428 <= 1
 0 <= x429 <= 1
Binaries
 x1  x2  x3  x4  x5  x6  x7  x15  x16  x17  x18  x19  x20  x21  x22  x23  x24 
 x25  x26  x27  x28  x29  x30  x31  x32  x33  x34  x35  x36  x37  x38  x39 
 x40  x41  x42  x43  x44  x45  x46  x47  x48  x49  x50  x51  x52  x53  x54 
 x55  x56  x57  x58  x59  x60  x61  x62  x63  x64  x65  x66  x67  x68  x69 
 x70  x71  x72  x73  x74  x75  x76  x77  x78  x79  x80  x81  x82  x83  x84 
 x85  x86  x87  x88  x89  x90  x91  x92  x93  x94  x95  x96  x97  x98  x99 
 x100  x101  x102  x103  x104  x105  x106  x107  x108  x109  x110  x111  x112 
 x113  x114  x115  x116  x117  x118  x119  x120  x121  x122  x123  x124  x125 
 x126  x127  x128  x129  x130  x131  x132  x133  x134  x135  x136  x137  x138 
 x139  x140  x141  x142  x143  x144  x145  x146  x147  x148  x149  x150  x151 
 x152  x153  x154  x155  x156  x157  x158  x159  x160  x161  x162  x163  x164 
 x165  x166  x167  x168  x169  x170  x171  x172  x173  x174  x175  x176  x339 
 x340  x341  x342  x343  x344  x345  x346  x347  x348  x349  x350  x351  x352 
 x353  x354  x355  x356  x357  x358  x359  x360  x361  x362  x363  x364  x365 
 x366  x367  x368  x369  x370  x371  x372  x373  x374  x394  x395  x396  x397 
 x398  x399  x400  x401  x402  x403  x404  x405  x418  x419  x422  x423  x424 
 x425  x426  x427  x428  x429 
End
